30
1 0 9
2 0 9
2 1 8
3 0 4
3 1 9
3 2 5
4 0 8
4 1 9
4 2 1
4 3 1
5 0 9
5 1 2
5 2 6
5 3 7
5 4 3
6 0 8
6 1 6
6 2 8
6 3 10
6 4 1
6 5 8
7 0 3
7 1 5
7 2 7
7 3 10
7 4 5
7 5 2
7 6 9
8 0 6
8 1 6
8 2 9
8 3 10
8 4 7
8 5 6
8 6 2
8 7 5
9 0 2
9 1 4
9 2 6
9 3 1
9 4 5
9 5 4
9 6 6
9 7 4
9 8 5
10 0 1
10 1 3
10 2 10
10 3 8
10 4 9
10 5 7
10 6 1
10 7 10
10 8 9
10 9 3
11 0 2
11 1 8
11 2 4
11 3 9
11 4 10
11 5 6
11 6 1
11 7 5
11 8 2
11 9 6
11 10 9
12 0 10
12 1 5
12 2 6
12 3 8
12 4 6
12 5 7
12 6 2
12 7 3
12 8 3
12 9 1
12 10 2
12 11 3
13 0 10
13 1 10
13 2 2
13 3 10
13 4 4
13 5 2
13 6 1
13 7 6
13 8 9
13 9 7
13 10 2
13 11 2
13 12 7
14 0 8
14 1 2
14 2 3
14 3 9
14 4 6
14 5 2
14 6 9
14 7 10
14 8 3
14 9 1
14 10 10
14 11 3
14 12 4
14 13 10
15 0 6
15 1 7
15 2 5
15 3 5
15 4 10
15 5 10
15 6 5
15 7 3
15 8 2
15 9 8
15 10 3
15 11 7
15 12 10
15 13 5
15 14 6
16 0 10
16 1 8
16 2 9
16 3 1
16 4 6
16 5 3
16 6 7
16 7 5
16 8 10
16 9 9
16 10 10
16 11 7
16 12 9
16 13 8
16 14 7
16 15 9
17 0 10
17 1 2
17 2 4
17 3 4
17 4 6
17 5 9
17 6 8
17 7 10
17 8 8
17 9 2
17 10 1
17 11 6
17 12 10
17 13 4
17 14 6
17 15 4
17 16 10
18 0 6
18 1 7
18 2 1
18 3 3
18 4 9
18 5 5
18 6 5
18 7 1
18 8 2
18 9 3
18 10 3
18 11 10
18 12 9
18 13 10
18 14 9
18 15 9
18 16 8
18 17 6
19 0 10
19 1 5
19 2 6
19 3 10
19 4 4
19 5 3
19 6 5
19 7 2
19 8 1
19 9 5
19 10 8
19 11 6
19 12 9
19 13 10
19 14 5
19 15 7
19 16 10
19 17 9
19 18 6
20 0 8
20 1 6
20 2 1
20 3 2
20 4 8
20 5 6
20 6 1
20 7 8
20 8 4
20 9 1
20 10 8
20 11 6
20 12 9
20 13 1
20 14 5
20 15 5
20 16 10
20 17 5
20 18 8
20 19 1
21 0 4
21 1 10
21 2 2
21 3 3
21 4 10
21 5 1
21 6 3
21 7 10
21 8 2
21 9 1
21 10 1
21 11 5
21 12 10
21 13 8
21 14 2
21 15 6
21 16 7
21 17 6
21 18 10
21 19 1
21 20 8
22 0 2
22 1 7
22 2 9
22 3 5
22 4 4
22 5 8
22 6 8
22 7 2
22 8 3
22 9 9
22 10 6
22 11 6
22 12 2
22 13 10
22 14 9
22 15 6
22 16 10
22 17 2
22 18 10
22 19 6
22 20 9
22 21 2
23 0 7
23 1 2
23 2 7
23 3 10
23 4 4
23 5 8
23 6 3
23 7 6
23 8 1
23 9 8
23 10 4
23 11 10
23 12 2
23 13 8
23 14 2
23 15 5
23 16 3
23 17 4
23 18 4
23 19 3
23 20 2
23 21 7
23 22 5
24 0 10
24 1 7
24 2 3
24 3 6
24 4 4
24 5 5
24 6 8
24 7 5
24 8 9
24 9 3
24 10 2
24 11 4
24 12 4
24 13 9
24 14 1
24 15 6
24 16 9
24 17 7
24 18 9
24 19 8
24 20 10
24 21 7
24 22 5
24 23 6
25 0 4
25 1 1
25 2 3
25 3 4
25 4 3
25 5 9
25 6 2
25 7 5
25 8 3
25 9 6
25 10 4
25 11 8
25 12 10
25 13 7
25 14 8
25 15 10
25 16 8
25 17 9
25 18 4
25 19 6
25 20 4
25 21 10
25 22 7
25 23 3
25 24 10
26 0 5
26 1 7
26 2 9
26 3 1
26 4 9
26 5 6
26 6 10
26 7 10
26 8 10
26 9 9
26 10 3
26 11 10
26 12 5
26 13 5
26 14 2
26 15 10
26 16 4
26 17 8
26 18 1
26 19 7
26 20 10
26 21 8
26 22 10
26 23 1
26 24 8
26 25 5
27 0 4
27 1 3
27 2 10
27 3 7
27 4 2
27 5 4
27 6 4
27 7 8
27 8 8
27 9 3
27 10 6
27 11 8
27 12 2
27 13 4
27 14 1
27 15 8
27 16 10
27 17 10
27 18 7
27 19 10
27 20 1
27 21 9
27 22 5
27 23 5
27 24 10
27 25 2
27 26 8
28 0 10
28 1 1
28 2 5
28 3 9
28 4 7
28 5 10
28 6 2
28 7 7
28 8 5
28 9 5
28 10 10
28 11 9
28 12 4
28 13 8
28 14 5
28 15 6
28 16 1
28 17 3
28 18 2
28 19 6
28 20 7
28 21 5
28 22 4
28 23 1
28 24 2
28 25 3
28 26 5
28 27 8
29 0 3
29 1 2
29 2 9
29 3 2
29 4 4
29 5 9
29 6 1
29 7 5
29 8 5
29 9 10
29 10 4
29 11 8
29 12 1
29 13 4
29 14 7
29 15 7
29 16 8
29 17 9
29 18 3
29 19 3
29 20 2
29 21 10
29 22 4
29 23 10
29 24 8
29 25 6
29 26 6
29 27 6
29 28 3
